% File represents an instance of a Composite Structure problem to be solved by a CP framework
% Created on 2025-03-26 10:41:20.159
T = 56;
n = 9;
m = 12;
edges = [(2, 1),
(4, 5),
(7, 8),
(2, 3),
(5, 6),
(8, 9),
(4, 1),
(4, 7),
(2, 5),
(5, 8),
(3, 6),
(9, 6)];
counts = [|4, 22, 4, 22,
|4, 22, 4, 24,
|4, 20, 4, 22,
|4, 24, 4, 24,
|2, 22, 2, 24,
|2, 20, 2, 20,
|2, 22, 2, 24,
|2, 20, 2, 24,
|2, 20, 2, 22|];
